c Generated map
c Size: 9 * 9, weights in range: 1 to 10, walls: True, with ratio 0.05
c dim 3 of 8
c
p sp 81 131
c graph contains 81 nodes and 131 arcs
c
a 1 10 9
a 10 1 9
a 1 2 3
a 2 1 3
a 2 11 9
a 11 2 9
a 2 3 10
a 3 2 10
a 3 12 6
a 12 3 6
a 3 4 6
a 4 3 6
a 4 13 7
a 13 4 7
a 4 5 9
a 5 4 9
a 5 14 6
a 14 5 6
a 5 6 6
a 6 5 6
a 6 15 4
a 15 6 4
a 6 7 10
a 7 6 10
a 7 16 10
a 16 7 10
a 7 8 9
a 8 7 9
a 8 17 10
a 17 8 10
a 8 9 2
a 9 8 2
a 9 18 8
a 18 9 8
a 10 19 8
a 19 10 8
a 10 11 10
a 11 10 10
a 11 20 4
a 20 11 4
a 11 12 6
a 12 11 6
a 12 21 3
a 21 12 3
a 12 13 1
a 13 12 1
a 13 22 9
a 22 13 9
a 13 14 2
a 14 13 2
a 14 23 4
a 23 14 4
a 14 15 1
a 15 14 1
a 15 24 6
a 24 15 6
a 15 16 8
a 16 15 8
a 16 25 7
a 25 16 7
a 16 17 5
a 17 16 5
a 17 26 6
a 26 17 6
a 17 18 9
a 18 17 9
a 18 27 3
a 27 18 3
a 19 28 8
a 28 19 8
a 19 20 2
a 20 19 2
a 20 29 5
a 29 20 5
a 20 21 9
a 21 20 9
a 21 30 4
a 30 21 4
a 21 22 9
a 22 21 9
a 22 31 9
a 31 22 9
a 22 23 8
a 23 22 8
a 23 32 5
a 32 23 5
a 23 24 10
a 24 23 10
a 24 33 8
a 33 24 8
a 24 25 7
a 25 24 7
a 25 34 9
a 34 25 9
a 25 26 2
a 26 25 2
a 26 35 2
a 35 26 2
a 26 27 9
a 27 26 9
a 27 36 4
a 36 27 4
a 28 37 5
a 37 28 5
a 28 29 7
a 29 28 7
a 29 38 2
a 38 29 2
a 29 30 4
a 30 29 4
a 30 39 7
a 39 30 7
a 30 31 3
a 31 30 3
a 31 40 9
a 40 31 9
a 31 32 2
a 32 31 2
a 32 41 6
a 41 32 6
a 32 33 5
a 33 32 5
a 33 42 1
a 42 33 1
a 33 34 3
a 34 33 3
a 34 35 2
a 35 34 2
a 35 44 7
a 44 35 7
a 35 36 1
a 36 35 1
a 37 46 7
a 46 37 7
a 37 38 7
a 38 37 7
a 38 47 9
a 47 38 9
a 38 39 6
a 39 38 6
a 39 48 3
a 48 39 3
a 39 40 5
a 40 39 5
a 40 49 2
a 49 40 2
a 40 41 3
a 41 40 3
a 41 50 6
a 50 41 6
a 41 42 8
a 42 41 8
a 42 51 5
a 51 42 5
a 44 53 5
a 53 44 5
a 46 55 4
a 55 46 4
a 46 47 1
a 47 46 1
a 47 56 10
a 56 47 10
a 47 48 9
a 48 47 9
a 48 57 8
a 57 48 8
a 48 49 3
a 49 48 3
a 49 58 1
a 58 49 1
a 49 50 9
a 50 49 9
a 50 59 8
a 59 50 8
a 50 51 7
a 51 50 7
a 51 60 3
a 60 51 3
a 53 62 2
a 62 53 2
a 53 54 7
a 54 53 7
a 54 63 2
a 63 54 2
a 55 64 1
a 64 55 1
a 55 56 1
a 56 55 1
a 56 65 4
a 65 56 4
a 56 57 2
a 57 56 2
a 57 66 10
a 66 57 10
a 57 58 2
a 58 57 2
a 58 67 3
a 67 58 3
a 58 59 7
a 59 58 7
a 59 68 6
a 68 59 6
a 59 60 1
a 60 59 1
a 60 69 1
a 69 60 1
a 60 61 3
a 61 60 3
a 61 70 8
a 70 61 8
a 61 62 9
a 62 61 9
a 62 71 4
a 71 62 4
a 62 63 7
a 63 62 7
a 63 72 7
a 72 63 7
a 64 73 9
a 73 64 9
a 64 65 1
a 65 64 1
a 65 74 4
a 74 65 4
a 65 66 2
a 66 65 2
a 66 67 9
a 67 66 9
a 67 76 5
a 76 67 5
a 67 68 4
a 68 67 4
a 68 77 5
a 77 68 5
a 68 69 1
a 69 68 1
a 69 78 1
a 78 69 1
a 69 70 5
a 70 69 5
a 70 79 8
a 79 70 8
a 70 71 1
a 71 70 1
a 71 80 8
a 80 71 8
a 71 72 4
a 72 71 4
a 72 81 1
a 81 72 1
a 73 74 6
a 74 73 6
a 76 77 9
a 77 76 9
a 77 78 1
a 78 77 1
a 78 79 5
a 79 78 5
a 79 80 2
a 80 79 2
a 80 81 6
a 81 80 6
